<number of tasks>
89

<cycle time>
137

<task times>
1 28
2 17
3 7
4 10
5 12
6 16
7 13
8 8
9 13
10 24
11 16
12 24
13 12
14 20
15 22
16 22
17 22
18 47
19 6
20 12
21 6
22 22
23 7
24 14
25 68
26 15
27 8
28 74
29 32
30 11
31 18
32 15
33 42
34 27
35 38
36 38
37 26
38 35
39 31
40 8
41 14
42 8
43 8
44 8
45 17
46 7
47 19
48 12
49 24
50 26
51 22
52 14
53 27
54 60
55 4
56 2
57 1
58 9
59 5
60 6
61 7
62 12
63 2
64 11
65 14
66 6
67 21
68 14
69 1
70 6
71 21
72 11
73 14
74 28
75 12
76 11
77 30
78 22
79 14
80 31
81 18
82 16
83 7
84 38
85 8
86 31
87 29
88 12
89 18

<precedence relations>
1,2
2,3
3,4
4,5
4,6
4,7
4,8
4,9
5,10
6,11
7,12
8,18
9,18
10,14
11,12
12,13
13,14
14,15
14,16
15,17
16,54
17,18
18,19
18,20
19,22
20,21
20,28
21,54
22,23
23,24
24,25
25,26
25,27
25,29
26,37
27,33
28,29
29,31
30,54
31,32
32,33
33,34
34,35
35,36
35,37
36,38
37,38
38,39
39,40
39,41
39,42
39,43
40,44
41,53
42,53
43,45
44,52
45,46
46,47
47,48
47,49
49,50
50,51
51,52
52,53
53,68
53,69
53,70
53,71
54,55
55,56
56,57
57,58
57,59
57,60
57,61
57,62
57,63
57,64
57,65
57,66
58,67
59,67
60,67
61,67
62,67
63,67
64,67
65,67
66,67
67,73
68,72
69,72
70,72
71,73
72,78
72,80
73,74
74,75
74,76
75,77
76,81
77,78
78,79
79,81
80,81
81,82
81,84
81,85
82,83
83,86
84,86
85,86
86,87
87,88
87,89

<setup times forward>
1,30:2
2,30:2
3,30:2
4,8:5
4,30:2
5,8:5
5,10:5
5,12:5
5,13:5
5,30:2
6,8:5
6,10:5
6,30:2
7,8:5
7,10:5
7,12:5
7,30:2
8,5:5
8,6:5
8,7:5
8,9:5
8,11:5
8,16:7
8,18:7
8,30:3
9,8:5
9,10:5
9,12:5
9,13:5
9,14:5
9,15:5
9,16:2
9,17:5
9,18:2
9,30:2
10,6:5
10,7:5
10,9:5
10,11:5
10,30:3
11,8:5
11,10:5
11,12:5
11,30:2
12,5:5
12,9:5
12,30:3
13,5:5
13,9:5
13,30:3
14,9:5
14,16:7
14,30:3
15,9:5
15,16:7
15,30:3
16,8:7
16,9:2
16,15:7
16,17:7
16,25:4
16,26:4
16,27:4
16,28:3
16,29:3
16,30:4
16,31:3
16,32:1
16,33:1
16,34:1
16,35:1
16,36:2
16,37:2
16,38:2
16,39:2
16,40:5
16,41:5
16,42:5
16,43:2
16,44:5
16,45:2
16,46:2
16,47:2
16,49:2
16,50:5
16,51:5
16,52:5
16,54:2
16,68:4
16,69:4
16,70:4
16,71:4
16,72:4
16,80:4
17,9:5
17,16:7
17,18:7
17,30:3
18,30:4
19,28:3
19,30:4
19,54:2
19,55:5
19,56:5
19,57:5
19,62:5
19,63:5
19,65:5
20,25:4
20,26:4
20,27:4
20,28:3
20,30:4
21,25:4
21,26:4
21,27:4
21,28:3
21,29:3
21,30:4
21,31:3
21,32:1
21,33:1
21,34:1
21,35:1
21,36:2
21,37:2
21,38:2
21,39:2
21,40:5
21,41:5
21,42:5
21,43:2
21,44:5
21,45:2
21,46:2
21,47:2
21,49:2
21,50:5
21,51:5
21,52:5
21,54:2
21,68:4
21,69:4
21,70:4
21,71:4
21,72:4
21,80:4
22,28:3
22,30:4
22,54:2
22,55:5
22,56:5
22,57:5
22,62:5
22,63:5
22,65:5
23,28:3
23,30:4
23,54:2
23,55:5
23,56:5
23,57:5
23,62:5
23,63:5
23,65:5
24,25:4
24,28:3
24,30:4
24,54:2
24,55:5
24,56:5
24,57:5
24,62:5
24,63:5
24,65:5
25,16:4
25,20:4
25,21:4
25,28:1
25,29:1
25,54:6
25,55:1
25,56:1
25,57:1
25,58:4
25,59:4
25,60:4
25,61:4
25,62:1
25,63:1
25,64:4
25,65:1
25,66:4
25,67:4
26,16:4
26,20:4
26,21:4
26,28:1
26,29:1
26,31:1
26,32:5
26,33:5
26,34:5
26,35:5
26,36:2
26,37:2
26,54:6
26,55:1
26,56:1
26,57:1
26,58:4
26,59:4
26,60:4
26,61:4
26,62:1
26,63:1
26,64:4
26,65:1
26,66:4
26,67:4
27,16:4
27,20:4
27,21:4
27,28:1
27,29:1
27,31:1
27,32:5
27,33:5
27,54:6
27,55:1
27,56:1
27,57:1
27,58:4
27,59:4
27,60:4
27,61:4
27,62:1
27,63:1
27,64:4
27,65:1
27,66:4
27,67:4
28,16:3
28,19:3
28,21:3
28,22:3
28,23:3
28,24:3
28,25:1
28,26:1
28,27:1
28,30:1
28,54:5
28,55:2
28,56:2
28,57:2
28,58:3
28,59:3
28,60:3
28,61:3
28,62:2
28,63:2
28,64:3
28,65:2
28,66:3
28,67:3
29,16:3
29,21:3
29,26:1
29,27:1
29,30:1
29,54:5
29,55:2
29,56:2
29,57:2
29,58:3
29,59:3
29,60:3
29,61:3
29,62:2
29,63:2
29,64:3
29,65:2
29,66:3
29,67:3
30,1:2
30,2:2
30,3:2
30,4:2
30,5:2
30,6:2
30,7:2
30,8:3
30,9:2
30,10:3
30,11:2
30,12:3
30,13:3
30,14:3
30,15:3
30,16:4
30,17:3
30,18:4
30,19:4
30,20:4
30,21:4
30,22:4
30,23:4
30,24:4
30,28:1
30,29:1
30,31:1
30,32:5
30,33:5
30,34:5
30,35:5
30,36:2
30,37:2
30,38:2
30,39:2
30,40:1
30,41:1
30,42:1
30,43:6
30,44:1
30,45:6
30,46:6
30,47:6
30,48:4
30,49:6
30,50:1
30,51:1
30,52:1
30,53:4
30,54:6
30,68:8
30,69:8
30,70:8
30,71:8
30,72:8
30,80:8
31,16:3
31,21:3
31,26:1
31,27:1
31,30:1
31,32:4
31,54:5
31,55:2
31,56:2
31,57:2
31,58:3
31,59:3
31,60:3
31,61:3
31,62:2
31,63:2
31,64:3
31,65:2
31,66:3
31,67:3
32,16:1
32,21:1
32,26:5
32,27:5
32,30:5
32,54:1
32,55:6
32,56:6
32,57:6
32,58:1
32,59:1
32,60:1
32,61:1
32,62:6
32,63:6
32,64:1
32,65:6
32,66:1
32,67:1
33,16:1
33,21:1
33,26:5
33,30:5
33,54:1
33,55:6
33,56:6
33,57:6
33,58:1
33,59:1
33,60:1
33,61:1
33,62:6
33,63:6
33,64:1
33,65:6
33,66:1
33,67:1
34,16:1
34,21:1
34,26:5
34,30:5
34,54:1
34,55:6
34,56:6
34,57:6
34,58:1
34,59:1
34,60:1
34,61:1
34,62:6
34,63:6
34,64:1
34,65:6
34,66:1
34,67:1
35,16:1
35,21:1
35,26:5
35,30:5
35,36:3
35,37:3
35,54:1
35,55:6
35,56:6
35,57:6
35,58:1
35,59:1
35,60:1
35,61:1
35,62:6
35,63:6
35,64:1
35,65:6
35,66:1
35,67:1
36,16:2
36,21:2
36,26:2
36,30:2
36,54:4
36,55:3
36,56:3
36,57:3
36,58:2
36,59:2
36,60:2
36,61:2
36,62:3
36,63:3
36,64:2
36,65:3
36,66:2
36,67:2
37,16:2
37,21:2
37,30:2
37,54:4
37,55:3
37,56:3
37,57:3
37,58:2
37,59:2
37,60:2
37,61:2
37,62:3
37,63:3
37,64:2
37,65:3
37,66:2
37,67:2
38,16:2
38,21:2
38,30:2
38,54:4
38,55:3
38,56:3
38,57:3
38,58:2
38,59:2
38,60:2
38,61:2
38,62:3
38,63:3
38,64:2
38,65:3
38,66:2
38,67:2
39,16:2
39,21:2
39,30:2
39,40:3
39,41:3
39,42:3
39,43:4
39,54:4
39,55:3
39,56:3
39,57:3
39,58:2
39,59:2
39,60:2
39,61:2
39,62:3
39,63:3
39,64:2
39,65:3
39,66:2
39,67:2
40,16:5
40,21:5
40,30:1
40,43:7
40,45:7
40,46:7
40,47:7
40,48:5
40,49:7
40,54:7
40,58:5
40,59:5
40,60:5
40,61:5
40,64:5
40,66:5
40,67:5
41,16:5
41,21:5
41,30:1
41,43:7
41,45:7
41,46:7
41,47:7
41,48:5
41,49:7
41,53:5
41,54:7
41,58:5
41,59:5
41,60:5
41,61:5
41,64:5
41,66:5
41,67:5
42,16:5
42,21:5
42,30:1
42,43:7
42,45:7
42,46:7
42,47:7
42,48:5
42,49:7
42,53:5
42,54:7
42,58:5
42,59:5
42,60:5
42,61:5
42,64:5
42,66:5
42,67:5
43,16:2
43,21:2
43,30:6
43,40:7
43,41:7
43,42:7
43,44:7
43,55:7
43,56:7
43,57:7
43,58:2
43,59:2
43,60:2
43,61:2
43,62:7
43,63:7
43,64:2
43,65:7
43,66:2
43,67:2
44,16:5
44,21:5
44,30:1
44,43:7
44,45:7
44,46:7
44,47:7
44,48:5
44,49:7
44,54:7
44,58:5
44,59:5
44,60:5
44,61:5
44,64:5
44,66:5
44,67:5
45,16:2
45,21:2
45,30:6
45,40:7
45,41:7
45,42:7
45,44:7
45,55:7
45,56:7
45,57:7
45,58:2
45,59:2
45,60:2
45,61:2
45,62:7
45,63:7
45,64:2
45,65:7
45,66:2
45,67:2
46,16:2
46,21:2
46,30:6
46,40:7
46,41:7
46,42:7
46,44:7
46,55:7
46,56:7
46,57:7
46,58:2
46,59:2
46,60:2
46,61:2
46,62:7
46,63:7
46,64:2
46,65:7
46,66:2
46,67:2
47,16:2
47,21:2
47,30:6
47,40:7
47,41:7
47,42:7
47,44:7
47,48:2
47,55:7
47,56:7
47,57:7
47,58:2
47,59:2
47,60:2
47,61:2
47,62:7
47,63:7
47,64:2
47,65:7
47,66:2
47,67:2
48,30:4
48,40:5
48,41:5
48,42:5
48,44:5
48,49:2
48,50:5
48,51:5
48,52:5
48,54:2
48,55:5
48,56:5
48,57:5
48,62:5
48,63:5
48,65:5
48,68:4
48,69:4
48,70:4
48,71:4
48,72:4
48,73:4
48,74:4
48,75:1
48,76:1
48,77:1
48,78:1
48,79:1
48,80:4
48,81:1
48,82:1
48,83:4
48,84:4
48,85:1
48,86:4
48,87:4
48,88:4
48,89:4
49,16:2
49,21:2
49,30:6
49,40:7
49,41:7
49,42:7
49,44:7
49,48:2
49,50:7
49,55:7
49,56:7
49,57:7
49,58:2
49,59:2
49,60:2
49,61:2
49,62:7
49,63:7
49,64:2
49,65:7
49,66:2
49,67:2
50,16:5
50,21:5
50,30:1
50,48:5
50,54:7
50,58:5
50,59:5
50,60:5
50,61:5
50,64:5
50,66:5
50,67:5
51,16:5
51,21:5
51,30:1
51,48:5
51,54:7
51,58:5
51,59:5
51,60:5
51,61:5
51,64:5
51,66:5
51,67:5
52,16:5
52,21:5
52,30:1
52,48:5
52,53:5
52,54:7
52,58:5
52,59:5
52,60:5
52,61:5
52,64:5
52,66:5
52,67:5
53,30:4
53,54:2
53,55:5
53,56:5
53,57:5
53,62:5
53,63:5
53,65:5
53,68:4
53,69:4
53,70:4
53,71:4
54,19:2
54,22:2
54,23:2
54,24:2
54,25:6
54,26:6
54,27:6
54,28:5
54,29:5
54,31:5
54,32:1
54,33:1
54,34:1
54,35:1
54,36:4
54,37:4
54,38:4
54,39:4
54,40:7
54,41:7
54,42:7
54,44:7
54,48:2
54,50:7
54,51:7
54,52:7
54,53:2
54,55:7
54,68:2
54,69:2
54,70:2
54,71:2
54,72:2
54,80:2
55,19:5
55,22:5
55,23:5
55,24:5
55,25:1
55,26:1
55,27:1
55,28:2
55,29:2
55,31:2
55,32:6
55,33:6
55,34:6
55,35:6
55,36:3
55,37:3
55,38:3
55,39:3
55,43:7
55,45:7
55,46:7
55,47:7
55,48:5
55,49:7
55,53:5
55,68:9
55,69:9
55,70:9
55,71:9
55,72:9
55,80:9
56,19:5
56,22:5
56,23:5
56,24:5
56,25:1
56,26:1
56,27:1
56,28:2
56,29:2
56,31:2
56,32:6
56,33:6
56,34:6
56,35:6
56,36:3
56,37:3
56,38:3
56,39:3
56,43:7
56,45:7
56,46:7
56,47:7
56,48:5
56,49:7
56,53:5
56,68:9
56,69:9
56,70:9
56,71:9
56,72:9
56,80:9
57,19:5
57,22:5
57,23:5
57,24:5
57,25:1
57,26:1
57,27:1
57,28:2
57,29:2
57,31:2
57,32:6
57,33:6
57,34:6
57,35:6
57,36:3
57,37:3
57,38:3
57,39:3
57,43:7
57,45:7
57,46:7
57,47:7
57,48:5
57,49:7
57,53:5
57,58:5
57,59:5
57,60:5
57,61:5
57,64:5
57,66:5
57,68:9
57,69:9
57,70:9
57,71:9
57,72:9
57,80:9
58,25:4
58,26:4
58,27:4
58,28:3
58,29:3
58,31:3
58,32:1
58,33:1
58,34:1
58,35:1
58,36:2
58,37:2
58,38:2
58,39:2
58,40:5
58,41:5
58,42:5
58,43:2
58,44:5
58,45:2
58,46:2
58,47:2
58,49:2
58,50:5
58,51:5
58,52:5
58,62:5
58,63:5
58,65:5
58,68:4
58,69:4
58,70:4
58,71:4
58,72:4
58,80:4
59,25:4
59,26:4
59,27:4
59,28:3
59,29:3
59,31:3
59,32:1
59,33:1
59,34:1
59,35:1
59,36:2
59,37:2
59,38:2
59,39:2
59,40:5
59,41:5
59,42:5
59,43:2
59,44:5
59,45:2
59,46:2
59,47:2
59,49:2
59,50:5
59,51:5
59,52:5
59,62:5
59,63:5
59,65:5
59,68:4
59,69:4
59,70:4
59,71:4
59,72:4
59,80:4
60,25:4
60,26:4
60,27:4
60,28:3
60,29:3
60,31:3
60,32:1
60,33:1
60,34:1
60,35:1
60,36:2
60,37:2
60,38:2
60,39:2
60,40:5
60,41:5
60,42:5
60,43:2
60,44:5
60,45:2
60,46:2
60,47:2
60,49:2
60,50:5
60,51:5
60,52:5
60,62:5
60,63:5
60,65:5
60,68:4
60,69:4
60,70:4
60,71:4
60,72:4
60,80:4
61,25:4
61,26:4
61,27:4
61,28:3
61,29:3
61,31:3
61,32:1
61,33:1
61,34:1
61,35:1
61,36:2
61,37:2
61,38:2
61,39:2
61,40:5
61,41:5
61,42:5
61,43:2
61,44:5
61,45:2
61,46:2
61,47:2
61,49:2
61,50:5
61,51:5
61,52:5
61,62:5
61,63:5
61,65:5
61,68:4
61,69:4
61,70:4
61,71:4
61,72:4
61,80:4
62,19:5
62,22:5
62,23:5
62,24:5
62,25:1
62,26:1
62,27:1
62,28:2
62,29:2
62,31:2
62,32:6
62,33:6
62,34:6
62,35:6
62,36:3
62,37:3
62,38:3
62,39:3
62,43:7
62,45:7
62,46:7
62,47:7
62,48:5
62,49:7
62,53:5
62,58:5
62,59:5
62,60:5
62,61:5
62,64:5
62,66:5
62,67:5
62,68:9
62,69:9
62,70:9
62,71:9
62,72:9
62,80:9
63,19:5
63,22:5
63,23:5
63,24:5
63,25:1
63,26:1
63,27:1
63,28:2
63,29:2
63,31:2
63,32:6
63,33:6
63,34:6
63,35:6
63,36:3
63,37:3
63,38:3
63,39:3
63,43:7
63,45:7
63,46:7
63,47:7
63,48:5
63,49:7
63,53:5
63,58:5
63,59:5
63,60:5
63,61:5
63,64:5
63,66:5
63,67:5
63,68:9
63,69:9
63,70:9
63,71:9
63,72:9
63,80:9
64,25:4
64,26:4
64,27:4
64,28:3
64,29:3
64,31:3
64,32:1
64,33:1
64,34:1
64,35:1
64,36:2
64,37:2
64,38:2
64,39:2
64,40:5
64,41:5
64,42:5
64,43:2
64,44:5
64,45:2
64,46:2
64,47:2
64,49:2
64,50:5
64,51:5
64,52:5
64,62:5
64,63:5
64,65:5
64,68:4
64,69:4
64,70:4
64,71:4
64,72:4
64,80:4
65,19:5
65,22:5
65,23:5
65,24:5
65,25:1
65,26:1
65,27:1
65,28:2
65,29:2
65,31:2
65,32:6
65,33:6
65,34:6
65,35:6
65,36:3
65,37:3
65,38:3
65,39:3
65,43:7
65,45:7
65,46:7
65,47:7
65,48:5
65,49:7
65,53:5
65,58:5
65,59:5
65,60:5
65,61:5
65,64:5
65,66:5
65,67:5
65,68:9
65,69:9
65,70:9
65,71:9
65,72:9
65,80:9
66,25:4
66,26:4
66,27:4
66,28:3
66,29:3
66,31:3
66,32:1
66,33:1
66,34:1
66,35:1
66,36:2
66,37:2
66,38:2
66,39:2
66,40:5
66,41:5
66,42:5
66,43:2
66,44:5
66,45:2
66,46:2
66,47:2
66,49:2
66,50:5
66,51:5
66,52:5
66,62:5
66,63:5
66,65:5
66,68:4
66,69:4
66,70:4
66,71:4
66,72:4
66,80:4
67,25:4
67,26:4
67,27:4
67,28:3
67,29:3
67,31:3
67,32:1
67,33:1
67,34:1
67,35:1
67,36:2
67,37:2
67,38:2
67,39:2
67,40:5
67,41:5
67,42:5
67,43:2
67,44:5
67,45:2
67,46:2
67,47:2
67,49:2
67,50:5
67,51:5
67,52:5
67,68:4
67,69:4
67,70:4
67,71:4
67,72:4
67,73:4
67,80:4
68,16:4
68,21:4
68,30:8
68,48:4
68,54:2
68,55:9
68,56:9
68,57:9
68,58:4
68,59:4
68,60:4
68,61:4
68,62:9
68,63:9
68,64:4
68,65:9
68,66:4
68,67:4
68,75:5
68,76:5
68,77:5
69,16:4
69,21:4
69,30:8
69,48:4
69,54:2
69,55:9
69,56:9
69,57:9
69,58:4
69,59:4
69,60:4
69,61:4
69,62:9
69,63:9
69,64:4
69,65:9
69,66:4
69,67:4
69,75:5
69,76:5
69,77:5
70,16:4
70,21:4
70,30:8
70,48:4
70,54:2
70,55:9
70,56:9
70,57:9
70,58:4
70,59:4
70,60:4
70,61:4
70,62:9
70,63:9
70,64:4
70,65:9
70,66:4
70,67:4
70,75:5
70,76:5
70,77:5
71,16:4
71,21:4
71,30:8
71,48:4
71,54:2
71,55:9
71,56:9
71,57:9
71,58:4
71,59:4
71,60:4
71,61:4
71,62:9
71,63:9
71,64:4
71,65:9
71,66:4
71,67:4
72,16:4
72,21:4
72,30:8
72,48:4
72,54:2
72,55:9
72,56:9
72,57:9
72,58:4
72,59:4
72,60:4
72,61:4
72,62:9
72,63:9
72,64:4
72,65:9
72,66:4
72,67:4
72,75:5
72,76:5
72,77:5
72,78:5
73,48:4
74,48:4
74,75:5
74,76:5
75,48:1
75,68:5
75,69:5
75,70:5
75,72:5
75,80:5
76,48:1
76,68:5
76,69:5
76,70:5
76,72:5
76,80:5
77,48:1
77,68:5
77,69:5
77,70:5
77,72:5
77,80:5
78,48:1
78,80:5
79,48:1
79,80:5
80,16:4
80,21:4
80,30:8
80,48:4
80,54:2
80,55:9
80,56:9
80,57:9
80,58:4
80,59:4
80,60:4
80,61:4
80,62:9
80,63:9
80,64:4
80,65:9
80,66:4
80,67:4
80,75:5
80,76:5
80,77:5
80,78:5
80,79:5
80,81:5
81,48:1
81,84:3
82,48:1
82,83:3
82,84:3
83,48:4
83,85:3
84,48:4
84,82:3
84,85:3
85,48:1
85,83:3
85,84:3
85,86:3
86,48:4
87,48:4
88,48:4
89,48:4

<setup times backward>
1,1:1
2,1:1
2,2:1
3,1:1
3,2:1
3,3:1
4,1:1
4,2:1
4,3:1
4,4:1
5,1:1
5,2:1
5,3:1
5,4:1
5,5:1
5,6:1
5,7:1
5,9:1
5,11:1
6,1:1
6,2:1
6,3:1
6,4:1
6,5:1
6,6:1
6,7:1
6,9:1
7,1:1
7,2:1
7,3:1
7,4:1
7,5:1
7,6:1
7,7:1
7,9:1
7,11:1
8,1:6
8,2:6
8,3:6
8,4:6
8,5:6
8,6:6
8,7:6
8,8:1
8,9:6
8,10:1
8,11:6
8,12:1
8,13:1
8,14:1
8,15:1
8,16:8
8,17:1
8,30:4
9,1:1
9,2:1
9,3:1
9,4:1
9,5:1
9,6:1
9,7:1
9,9:1
9,11:1
9,16:3
10,1:6
10,2:6
10,3:6
10,4:6
10,5:6
10,6:6
10,7:6
10,8:1
10,9:6
10,10:1
10,11:6
10,12:1
10,13:1
10,30:4
11,1:1
11,2:1
11,3:1
11,4:1
11,5:1
11,6:1
11,7:1
11,9:1
11,11:1
12,1:6
12,2:6
12,3:6
12,4:6
12,5:6
12,6:6
12,7:6
12,8:1
12,9:6
12,10:1
12,11:6
12,12:1
12,30:4
13,1:6
13,2:6
13,3:6
13,4:6
13,5:6
13,6:6
13,7:6
13,8:1
13,9:6
13,10:1
13,11:6
13,12:1
13,13:1
13,30:4
14,1:6
14,2:6
14,3:6
14,4:6
14,5:6
14,6:6
14,7:6
14,8:1
14,9:6
14,10:1
14,11:6
14,12:1
14,13:1
14,14:1
14,30:4
15,1:6
15,2:6
15,3:6
15,4:6
15,5:6
15,6:6
15,7:6
15,8:1
15,9:6
15,10:1
15,11:6
15,12:1
15,13:1
15,14:1
15,15:1
15,16:8
15,30:4
16,16:1
16,18:1
16,19:1
16,20:1
16,21:1
16,22:1
16,23:1
16,24:1
16,32:2
16,33:2
16,34:2
16,35:2
16,43:3
16,45:3
16,46:3
16,47:3
16,48:1
16,49:3
16,53:1
16,68:5
16,69:5
16,70:5
16,71:5
16,72:5
16,80:5
17,1:6
17,2:6
17,3:6
17,4:6
17,5:6
17,6:6
17,7:6
17,8:1
17,9:6
17,10:1
17,11:6
17,12:1
17,13:1
17,14:1
17,15:1
17,16:8
17,17:1
17,30:4
18,16:1
18,18:1
19,16:1
19,18:1
19,19:1
19,20:1
19,21:1
19,54:3
19,58:1
19,59:1
19,60:1
19,61:1
19,64:1
19,66:1
19,67:1
20,16:1
20,18:1
20,19:1
20,20:1
20,22:1
20,23:1
20,24:1
21,16:1
21,18:1
21,19:1
21,20:1
21,21:1
21,22:1
21,23:1
21,24:1
21,32:2
21,33:2
21,34:2
21,35:2
21,43:3
21,45:3
21,46:3
21,47:3
21,48:1
21,49:3
21,53:1
21,68:5
21,69:5
21,70:5
21,71:5
21,72:5
21,80:5
22,16:1
22,18:1
22,19:1
22,20:1
22,21:1
22,22:1
22,54:3
22,58:1
22,59:1
22,60:1
22,61:1
22,64:1
22,66:1
22,67:1
23,16:1
23,18:1
23,19:1
23,20:1
23,21:1
23,22:1
23,23:1
23,54:3
23,58:1
23,59:1
23,60:1
23,61:1
23,64:1
23,66:1
23,67:1
24,16:1
24,18:1
24,19:1
24,20:1
24,21:1
24,22:1
24,23:1
24,24:1
24,54:3
24,58:1
24,59:1
24,60:1
24,61:1
24,64:1
24,66:1
24,67:1
25,1:3
25,2:3
25,3:3
25,4:3
25,5:3
25,6:3
25,7:3
25,9:3
25,11:3
25,16:5
25,18:5
25,19:5
25,20:5
25,21:5
25,22:5
25,23:5
25,24:5
25,25:1
25,28:2
25,30:1
25,54:7
25,58:5
25,59:5
25,60:5
25,61:5
25,64:5
25,66:5
25,67:5
26,1:3
26,2:3
26,3:3
26,4:3
26,5:3
26,6:3
26,7:3
26,9:3
26,11:3
26,16:5
26,18:5
26,19:5
26,20:5
26,21:5
26,22:5
26,23:5
26,24:5
26,25:1
26,26:1
26,27:1
26,28:2
26,29:2
26,30:1
26,31:2
26,32:6
26,33:6
26,34:6
26,35:6
26,36:3
26,54:7
26,58:5
26,59:5
26,60:5
26,61:5
26,64:5
26,66:5
26,67:5
27,1:3
27,2:3
27,3:3
27,4:3
27,5:3
27,6:3
27,7:3
27,9:3
27,11:3
27,16:5
27,18:5
27,19:5
27,20:5
27,21:5
27,22:5
27,23:5
27,24:5
27,25:1
27,26:1
27,27:1
27,28:2
27,29:2
27,30:1
27,31:2
27,32:6
27,54:7
27,58:5
27,59:5
27,60:5
27,61:5
27,64:5
27,66:5
27,67:5
28,1:2
28,2:2
28,3:2
28,4:2
28,5:2
28,6:2
28,7:2
28,9:2
28,11:2
28,16:4
28,18:4
28,19:4
28,20:4
28,21:4
28,22:4
28,23:4
28,24:4
28,28:1
28,54:6
28,58:4
28,59:4
28,60:4
28,61:4
28,64:4
28,66:4
28,67:4
29,1:2
29,2:2
29,3:2
29,4:2
29,5:2
29,6:2
29,7:2
29,9:2
29,11:2
29,16:4
29,18:4
29,19:4
29,20:4
29,21:4
29,22:4
29,23:4
29,24:4
29,28:1
29,29:1
29,54:6
29,58:4
29,59:4
29,60:4
29,61:4
29,64:4
29,66:4
29,67:4
30,1:3
30,2:3
30,3:3
30,4:3
30,5:3
30,6:3
30,7:3
30,9:3
30,11:3
30,16:5
30,18:5
30,19:5
30,20:5
30,21:5
30,22:5
30,23:5
30,24:5
30,25:1
30,26:1
30,27:1
30,28:2
30,29:2
30,30:1
30,31:2
30,32:6
30,33:6
30,34:6
30,35:6
30,36:3
30,37:3
30,38:3
30,39:3
30,43:7
30,45:7
30,46:7
30,47:7
30,48:5
30,49:7
30,53:5
30,68:9
30,69:9
30,70:9
30,71:9
30,72:9
30,80:9
31,1:2
31,2:2
31,3:2
31,4:2
31,5:2
31,6:2
31,7:2
31,9:2
31,11:2
31,16:4
31,18:4
31,19:4
31,20:4
31,21:4
31,22:4
31,23:4
31,24:4
31,28:1
31,29:1
31,31:1
31,54:6
31,58:4
31,59:4
31,60:4
31,61:4
31,64:4
31,66:4
31,67:4
32,32:1
32,54:2
33,32:1
33,33:1
33,54:2
34,32:1
34,33:1
34,34:1
34,54:2
35,32:1
35,33:1
35,34:1
35,35:1
35,54:2
36,1:1
36,2:1
36,3:1
36,4:1
36,5:1
36,6:1
36,7:1
36,9:1
36,11:1
36,16:3
36,18:3
36,19:3
36,20:3
36,21:3
36,22:3
36,23:3
36,24:3
36,32:4
36,33:4
36,34:4
36,35:4
36,36:1
36,37:1
36,54:5
36,58:3
36,59:3
36,60:3
36,61:3
36,64:3
36,66:3
36,67:3
37,1:1
37,2:1
37,3:1
37,4:1
37,5:1
37,6:1
37,7:1
37,9:1
37,11:1
37,16:3
37,18:3
37,19:3
37,20:3
37,21:3
37,22:3
37,23:3
37,24:3
37,32:4
37,33:4
37,34:4
37,35:4
37,36:1
37,37:1
37,54:5
37,58:3
37,59:3
37,60:3
37,61:3
37,64:3
37,66:3
37,67:3
38,1:1
38,2:1
38,3:1
38,4:1
38,5:1
38,6:1
38,7:1
38,9:1
38,11:1
38,16:3
38,18:3
38,19:3
38,20:3
38,21:3
38,22:3
38,23:3
38,24:3
38,32:4
38,33:4
38,34:4
38,35:4
38,36:1
38,37:1
38,38:1
38,54:5
38,58:3
38,59:3
38,60:3
38,61:3
38,64:3
38,66:3
38,67:3
39,1:1
39,2:1
39,3:1
39,4:1
39,5:1
39,6:1
39,7:1
39,9:1
39,11:1
39,16:3
39,18:3
39,19:3
39,20:3
39,21:3
39,22:3
39,23:3
39,24:3
39,32:4
39,33:4
39,34:4
39,35:4
39,36:1
39,37:1
39,38:1
39,39:1
39,54:5
39,58:3
39,59:3
39,60:3
39,61:3
39,64:3
39,66:3
39,67:3
40,1:4
40,2:4
40,3:4
40,4:4
40,5:4
40,6:4
40,7:4
40,9:4
40,11:4
40,16:6
40,18:6
40,19:6
40,20:6
40,21:6
40,22:6
40,23:6
40,24:6
40,25:2
40,26:2
40,27:2
40,28:3
40,29:3
40,30:2
40,31:3
40,32:7
40,33:7
40,34:7
40,35:7
40,36:4
40,37:4
40,38:4
40,39:4
40,40:1
40,41:1
40,42:1
40,43:8
40,45:8
40,46:8
40,47:8
40,48:6
40,49:8
40,50:1
40,51:1
40,54:8
40,55:1
40,56:1
40,57:1
40,58:6
40,59:6
40,60:6
40,61:6
40,62:1
40,63:1
40,64:6
40,65:1
40,66:6
40,67:6
41,1:4
41,2:4
41,3:4
41,4:4
41,5:4
41,6:4
41,7:4
41,9:4
41,11:4
41,16:6
41,18:6
41,19:6
41,20:6
41,21:6
41,22:6
41,23:6
41,24:6
41,25:2
41,26:2
41,27:2
41,28:3
41,29:3
41,30:2
41,31:3
41,32:7
41,33:7
41,34:7
41,35:7
41,36:4
41,37:4
41,38:4
41,39:4
41,40:1
41,41:1
41,42:1
41,43:8
41,44:1
41,45:8
41,46:8
41,47:8
41,48:6
41,49:8
41,50:1
41,51:1
41,52:1
41,54:8
41,55:1
41,56:1
41,57:1
41,58:6
41,59:6
41,60:6
41,61:6
41,62:1
41,63:1
41,64:6
41,65:1
41,66:6
41,67:6
42,1:4
42,2:4
42,3:4
42,4:4
42,5:4
42,6:4
42,7:4
42,9:4
42,11:4
42,16:6
42,18:6
42,19:6
42,20:6
42,21:6
42,22:6
42,23:6
42,24:6
42,25:2
42,26:2
42,27:2
42,28:3
42,29:3
42,30:2
42,31:3
42,32:7
42,33:7
42,34:7
42,35:7
42,36:4
42,37:4
42,38:4
42,39:4
42,40:1
42,41:1
42,42:1
42,43:8
42,44:1
42,45:8
42,46:8
42,47:8
42,48:6
42,49:8
42,50:1
42,51:1
42,52:1
42,54:8
42,55:1
42,56:1
42,57:1
42,58:6
42,59:6
42,60:6
42,61:6
42,62:1
42,63:1
42,64:6
42,65:1
42,66:6
42,67:6
43,43:1
43,54:1
44,1:4
44,2:4
44,3:4
44,4:4
44,5:4
44,6:4
44,7:4
44,9:4
44,11:4
44,16:6
44,18:6
44,19:6
44,20:6
44,21:6
44,22:6
44,23:6
44,24:6
44,25:2
44,26:2
44,27:2
44,28:3
44,29:3
44,30:2
44,31:3
44,32:7
44,33:7
44,34:7
44,35:7
44,36:4
44,37:4
44,38:4
44,39:4
44,40:1
44,41:1
44,42:1
44,43:8
44,44:1
44,45:8
44,46:8
44,47:8
44,48:6
44,49:8
44,50:1
44,51:1
44,54:8
44,55:1
44,56:1
44,57:1
44,58:6
44,59:6
44,60:6
44,61:6
44,62:1
44,63:1
44,64:6
44,65:1
44,66:6
44,67:6
45,43:1
45,45:1
45,54:1
46,43:1
46,45:1
46,46:1
46,54:1
47,43:1
47,45:1
47,46:1
47,47:1
47,54:1
48,16:1
48,18:1
48,19:1
48,20:1
48,21:1
48,22:1
48,23:1
48,24:1
48,32:2
48,33:2
48,34:2
48,35:2
48,43:3
48,45:3
48,46:3
48,47:3
48,48:1
48,49:3
48,53:1
48,54:3
48,58:1
48,59:1
48,60:1
48,61:1
48,64:1
48,66:1
48,67:1
48,68:5
48,69:5
48,70:5
48,71:5
48,72:5
48,73:5
48,74:5
48,80:5
49,43:1
49,45:1
49,46:1
49,47:1
49,49:1
49,54:1
50,1:4
50,2:4
50,3:4
50,4:4
50,5:4
50,6:4
50,7:4
50,9:4
50,11:4
50,16:6
50,18:6
50,19:6
50,20:6
50,21:6
50,22:6
50,23:6
50,24:6
50,25:2
50,26:2
50,27:2
50,28:3
50,29:3
50,30:2
50,31:3
50,32:7
50,33:7
50,34:7
50,35:7
50,36:4
50,37:4
50,38:4
50,39:4
50,40:1
50,41:1
50,42:1
50,43:8
50,44:1
50,45:8
50,46:8
50,47:8
50,48:6
50,49:8
50,50:1
50,54:8
50,55:1
50,56:1
50,57:1
50,58:6
50,59:6
50,60:6
50,61:6
50,62:1
50,63:1
50,64:6
50,65:1
50,66:6
50,67:6
51,1:4
51,2:4
51,3:4
51,4:4
51,5:4
51,6:4
51,7:4
51,9:4
51,11:4
51,16:6
51,18:6
51,19:6
51,20:6
51,21:6
51,22:6
51,23:6
51,24:6
51,25:2
51,26:2
51,27:2
51,28:3
51,29:3
51,30:2
51,31:3
51,32:7
51,33:7
51,34:7
51,35:7
51,36:4
51,37:4
51,38:4
51,39:4
51,40:1
51,41:1
51,42:1
51,43:8
51,44:1
51,45:8
51,46:8
51,47:8
51,48:6
51,49:8
51,50:1
51,51:1
51,54:8
51,55:1
51,56:1
51,57:1
51,58:6
51,59:6
51,60:6
51,61:6
51,62:1
51,63:1
51,64:6
51,65:1
51,66:6
51,67:6
52,1:4
52,2:4
52,3:4
52,4:4
52,5:4
52,6:4
52,7:4
52,9:4
52,11:4
52,16:6
52,18:6
52,19:6
52,20:6
52,21:6
52,22:6
52,23:6
52,24:6
52,25:2
52,26:2
52,27:2
52,28:3
52,29:3
52,30:2
52,31:3
52,32:7
52,33:7
52,34:7
52,35:7
52,36:4
52,37:4
52,38:4
52,39:4
52,40:1
52,41:1
52,42:1
52,43:8
52,44:1
52,45:8
52,46:8
52,47:8
52,48:6
52,49:8
52,50:1
52,51:1
52,52:1
52,54:8
52,55:1
52,56:1
52,57:1
52,58:6
52,59:6
52,60:6
52,61:6
52,62:1
52,63:1
52,64:6
52,65:1
52,66:6
52,67:6
53,16:1
53,18:1
53,19:1
53,20:1
53,21:1
53,22:1
53,23:1
53,24:1
53,32:2
53,33:2
53,34:2
53,35:2
53,43:3
53,45:3
53,46:3
53,47:3
53,48:1
53,49:3
53,53:1
53,54:3
53,58:1
53,59:1
53,60:1
53,61:1
53,64:1
53,66:1
53,67:1
54,43:1
54,45:1
54,46:1
54,47:1
54,49:1
54,54:1
54,68:3
54,69:3
54,70:3
54,71:3
54,72:3
54,80:3
55,1:4
55,2:4
55,3:4
55,4:4
55,5:4
55,6:4
55,7:4
55,9:4
55,11:4
55,16:6
55,18:6
55,19:6
55,20:6
55,21:6
55,22:6
55,23:6
55,24:6
55,25:2
55,26:2
55,27:2
55,28:3
55,29:3
55,30:2
55,31:3
55,32:7
55,33:7
55,34:7
55,35:7
55,36:4
55,37:4
55,38:4
55,39:4
55,40:1
55,41:1
55,42:1
55,43:8
55,44:1
55,45:8
55,46:8
55,47:8
55,48:6
55,49:8
55,50:1
55,51:1
55,52:1
55,53:6
55,54:8
55,55:1
55,68:10
55,69:10
55,70:10
55,71:10
55,72:10
55,80:10
56,1:4
56,2:4
56,3:4
56,4:4
56,5:4
56,6:4
56,7:4
56,9:4
56,11:4
56,16:6
56,18:6
56,19:6
56,20:6
56,21:6
56,22:6
56,23:6
56,24:6
56,25:2
56,26:2
56,27:2
56,28:3
56,29:3
56,30:2
56,31:3
56,32:7
56,33:7
56,34:7
56,35:7
56,36:4
56,37:4
56,38:4
56,39:4
56,40:1
56,41:1
56,42:1
56,43:8
56,44:1
56,45:8
56,46:8
56,47:8
56,48:6
56,49:8
56,50:1
56,51:1
56,52:1
56,53:6
56,54:8
56,55:1
56,56:1
56,68:10
56,69:10
56,70:10
56,71:10
56,72:10
56,80:10
57,1:4
57,2:4
57,3:4
57,4:4
57,5:4
57,6:4
57,7:4
57,9:4
57,11:4
57,16:6
57,18:6
57,19:6
57,20:6
57,21:6
57,22:6
57,23:6
57,24:6
57,25:2
57,26:2
57,27:2
57,28:3
57,29:3
57,30:2
57,31:3
57,32:7
57,33:7
57,34:7
57,35:7
57,36:4
57,37:4
57,38:4
57,39:4
57,40:1
57,41:1
57,42:1
57,43:8
57,44:1
57,45:8
57,46:8
57,47:8
57,48:6
57,49:8
57,50:1
57,51:1
57,52:1
57,53:6
57,54:8
57,55:1
57,56:1
57,57:1
57,68:10
57,69:10
57,70:10
57,71:10
57,72:10
57,80:10
58,16:1
58,18:1
58,19:1
58,20:1
58,21:1
58,22:1
58,23:1
58,24:1
58,32:2
58,33:2
58,34:2
58,35:2
58,43:3
58,45:3
58,46:3
58,47:3
58,48:1
58,49:3
58,53:1
58,54:3
58,58:1
58,59:1
58,60:1
58,61:1
58,64:1
58,66:1
58,68:5
58,69:5
58,70:5
58,71:5
58,72:5
58,80:5
59,16:1
59,18:1
59,19:1
59,20:1
59,21:1
59,22:1
59,23:1
59,24:1
59,32:2
59,33:2
59,34:2
59,35:2
59,43:3
59,45:3
59,46:3
59,47:3
59,48:1
59,49:3
59,53:1
59,54:3
59,58:1
59,59:1
59,60:1
59,61:1
59,64:1
59,66:1
59,68:5
59,69:5
59,70:5
59,71:5
59,72:5
59,80:5
60,16:1
60,18:1
60,19:1
60,20:1
60,21:1
60,22:1
60,23:1
60,24:1
60,32:2
60,33:2
60,34:2
60,35:2
60,43:3
60,45:3
60,46:3
60,47:3
60,48:1
60,49:3
60,53:1
60,54:3
60,58:1
60,59:1
60,60:1
60,61:1
60,64:1
60,66:1
60,68:5
60,69:5
60,70:5
60,71:5
60,72:5
60,80:5
61,16:1
61,18:1
61,19:1
61,20:1
61,21:1
61,22:1
61,23:1
61,24:1
61,32:2
61,33:2
61,34:2
61,35:2
61,43:3
61,45:3
61,46:3
61,47:3
61,48:1
61,49:3
61,53:1
61,54:3
61,58:1
61,59:1
61,60:1
61,61:1
61,64:1
61,66:1
61,68:5
61,69:5
61,70:5
61,71:5
61,72:5
61,80:5
62,1:4
62,2:4
62,3:4
62,4:4
62,5:4
62,6:4
62,7:4
62,9:4
62,11:4
62,16:6
62,18:6
62,19:6
62,20:6
62,21:6
62,22:6
62,23:6
62,24:6
62,25:2
62,26:2
62,27:2
62,28:3
62,29:3
62,30:2
62,31:3
62,32:7
62,33:7
62,34:7
62,35:7
62,36:4
62,37:4
62,38:4
62,39:4
62,40:1
62,41:1
62,42:1
62,43:8
62,44:1
62,45:8
62,46:8
62,47:8
62,48:6
62,49:8
62,50:1
62,51:1
62,52:1
62,53:6
62,54:8
62,55:1
62,56:1
62,57:1
62,58:6
62,59:6
62,60:6
62,61:6
62,62:1
62,63:1
62,64:6
62,65:1
62,66:6
62,68:10
62,69:10
62,70:10
62,71:10
62,72:10
62,80:10
63,1:4
63,2:4
63,3:4
63,4:4
63,5:4
63,6:4
63,7:4
63,9:4
63,11:4
63,16:6
63,18:6
63,19:6
63,20:6
63,21:6
63,22:6
63,23:6
63,24:6
63,25:2
63,26:2
63,27:2
63,28:3
63,29:3
63,30:2
63,31:3
63,32:7
63,33:7
63,34:7
63,35:7
63,36:4
63,37:4
63,38:4
63,39:4
63,40:1
63,41:1
63,42:1
63,43:8
63,44:1
63,45:8
63,46:8
63,47:8
63,48:6
63,49:8
63,50:1
63,51:1
63,52:1
63,53:6
63,54:8
63,55:1
63,56:1
63,57:1
63,58:6
63,59:6
63,60:6
63,61:6
63,62:1
63,63:1
63,64:6
63,65:1
63,66:6
63,68:10
63,69:10
63,70:10
63,71:10
63,72:10
63,80:10
64,16:1
64,18:1
64,19:1
64,20:1
64,21:1
64,22:1
64,23:1
64,24:1
64,32:2
64,33:2
64,34:2
64,35:2
64,43:3
64,45:3
64,46:3
64,47:3
64,48:1
64,49:3
64,53:1
64,54:3
64,58:1
64,59:1
64,60:1
64,61:1
64,64:1
64,66:1
64,68:5
64,69:5
64,70:5
64,71:5
64,72:5
64,80:5
65,1:4
65,2:4
65,3:4
65,4:4
65,5:4
65,6:4
65,7:4
65,9:4
65,11:4
65,16:6
65,18:6
65,19:6
65,20:6
65,21:6
65,22:6
65,23:6
65,24:6
65,25:2
65,26:2
65,27:2
65,28:3
65,29:3
65,30:2
65,31:3
65,32:7
65,33:7
65,34:7
65,35:7
65,36:4
65,37:4
65,38:4
65,39:4
65,40:1
65,41:1
65,42:1
65,43:8
65,44:1
65,45:8
65,46:8
65,47:8
65,48:6
65,49:8
65,50:1
65,51:1
65,52:1
65,53:6
65,54:8
65,55:1
65,56:1
65,57:1
65,58:6
65,59:6
65,60:6
65,61:6
65,62:1
65,63:1
65,64:6
65,65:1
65,66:6
65,68:10
65,69:10
65,70:10
65,71:10
65,72:10
65,80:10
66,16:1
66,18:1
66,19:1
66,20:1
66,21:1
66,22:1
66,23:1
66,24:1
66,32:2
66,33:2
66,34:2
66,35:2
66,43:3
66,45:3
66,46:3
66,47:3
66,48:1
66,49:3
66,53:1
66,54:3
66,58:1
66,59:1
66,60:1
66,61:1
66,64:1
66,66:1
66,68:5
66,69:5
66,70:5
66,71:5
66,72:5
66,80:5
67,16:1
67,18:1
67,19:1
67,20:1
67,21:1
67,22:1
67,23:1
67,24:1
67,32:2
67,33:2
67,34:2
67,35:2
67,43:3
67,45:3
67,46:3
67,47:3
67,48:1
67,49:3
67,53:1
67,54:3
67,58:1
67,59:1
67,60:1
67,61:1
67,64:1
67,66:1
67,67:1
67,68:5
67,69:5
67,70:5
67,71:5
67,72:5
67,80:5
68,68:1
68,69:1
68,70:1
68,71:1
68,73:1
68,74:1
69,68:1
69,69:1
69,70:1
69,71:1
69,73:1
69,74:1
70,68:1
70,69:1
70,70:1
70,71:1
70,73:1
70,74:1
71,68:1
71,69:1
71,70:1
71,71:1
71,72:1
71,80:1
72,68:1
72,69:1
72,70:1
72,71:1
72,72:1
72,73:1
72,74:1
73,68:1
73,69:1
73,70:1
73,71:1
73,72:1
73,73:1
73,80:1
74,68:1
74,69:1
74,70:1
74,71:1
74,72:1
74,73:1
74,74:1
74,80:1
75,16:2
75,18:2
75,19:2
75,20:2
75,21:2
75,22:2
75,23:2
75,24:2
75,32:3
75,33:3
75,34:3
75,35:3
75,43:4
75,45:4
75,46:4
75,47:4
75,48:2
75,49:4
75,53:2
75,54:4
75,58:2
75,59:2
75,60:2
75,61:2
75,64:2
75,66:2
75,67:2
75,68:6
75,69:6
75,70:6
75,71:6
75,72:6
75,73:6
75,74:6
75,75:1
75,76:1
75,80:6
76,16:2
76,18:2
76,19:2
76,20:2
76,21:2
76,22:2
76,23:2
76,24:2
76,32:3
76,33:3
76,34:3
76,35:3
76,43:4
76,45:4
76,46:4
76,47:4
76,48:2
76,49:4
76,53:2
76,54:4
76,58:2
76,59:2
76,60:2
76,61:2
76,64:2
76,66:2
76,67:2
76,68:6
76,69:6
76,70:6
76,71:6
76,72:6
76,73:6
76,74:6
76,75:1
76,76:1
76,77:1
76,78:1
76,79:1
76,80:6
77,16:2
77,18:2
77,19:2
77,20:2
77,21:2
77,22:2
77,23:2
77,24:2
77,32:3
77,33:3
77,34:3
77,35:3
77,43:4
77,45:4
77,46:4
77,47:4
77,48:2
77,49:4
77,53:2
77,54:4
77,58:2
77,59:2
77,60:2
77,61:2
77,64:2
77,66:2
77,67:2
77,68:6
77,69:6
77,70:6
77,71:6
77,72:6
77,73:6
77,74:6
77,75:1
77,76:1
77,77:1
77,80:6
78,16:2
78,18:2
78,19:2
78,20:2
78,21:2
78,22:2
78,23:2
78,24:2
78,32:3
78,33:3
78,34:3
78,35:3
78,43:4
78,45:4
78,46:4
78,47:4
78,48:2
78,49:4
78,53:2
78,54:4
78,58:2
78,59:2
78,60:2
78,61:2
78,64:2
78,66:2
78,67:2
78,68:6
78,69:6
78,70:6
78,71:6
78,72:6
78,73:6
78,74:6
78,75:1
78,76:1
78,77:1
78,78:1
78,80:6
79,16:2
79,18:2
79,19:2
79,20:2
79,21:2
79,22:2
79,23:2
79,24:2
79,32:3
79,33:3
79,34:3
79,35:3
79,43:4
79,45:4
79,46:4
79,47:4
79,48:2
79,49:4
79,53:2
79,54:4
79,58:2
79,59:2
79,60:2
79,61:2
79,64:2
79,66:2
79,67:2
79,68:6
79,69:6
79,70:6
79,71:6
79,72:6
79,73:6
79,74:6
79,75:1
79,76:1
79,77:1
79,78:1
79,79:1
79,80:6
80,68:1
80,69:1
80,70:1
80,71:1
80,72:1
80,73:1
80,74:1
80,80:1
81,16:2
81,18:2
81,19:2
81,20:2
81,21:2
81,22:2
81,23:2
81,24:2
81,32:3
81,33:3
81,34:3
81,35:3
81,43:4
81,45:4
81,46:4
81,47:4
81,48:2
81,49:4
81,53:2
81,54:4
81,58:2
81,59:2
81,60:2
81,61:2
81,64:2
81,66:2
81,67:2
81,68:6
81,69:6
81,70:6
81,71:6
81,72:6
81,73:6
81,74:6
81,75:1
81,76:1
81,77:1
81,78:1
81,79:1
81,80:6
81,81:1
82,16:2
82,18:2
82,19:2
82,20:2
82,21:2
82,22:2
82,23:2
82,24:2
82,32:3
82,33:3
82,34:3
82,35:3
82,43:4
82,45:4
82,46:4
82,47:4
82,48:2
82,49:4
82,53:2
82,54:4
82,58:2
82,59:2
82,60:2
82,61:2
82,64:2
82,66:2
82,67:2
82,68:6
82,69:6
82,70:6
82,71:6
82,72:6
82,73:6
82,74:6
82,75:1
82,76:1
82,77:1
82,78:1
82,79:1
82,80:6
82,81:1
82,82:1
82,85:1
83,1:3
83,2:3
83,3:3
83,4:3
83,5:3
83,6:3
83,7:3
83,9:3
83,11:3
83,16:5
83,18:5
83,19:5
83,20:5
83,21:5
83,22:5
83,23:5
83,24:5
83,25:1
83,26:1
83,27:1
83,28:2
83,29:2
83,30:1
83,31:2
83,32:6
83,33:6
83,34:6
83,35:6
83,36:3
83,37:3
83,38:3
83,39:3
83,43:7
83,45:7
83,46:7
83,47:7
83,48:5
83,49:7
83,53:5
83,54:7
83,58:5
83,59:5
83,60:5
83,61:5
83,64:5
83,66:5
83,67:5
83,68:9
83,69:9
83,70:9
83,71:9
83,72:9
83,73:9
83,74:9
83,75:4
83,76:4
83,77:4
83,78:4
83,79:4
83,80:9
83,81:4
83,82:4
83,83:1
83,84:1
83,85:4
84,1:3
84,2:3
84,3:3
84,4:3
84,5:3
84,6:3
84,7:3
84,9:3
84,11:3
84,16:5
84,18:5
84,19:5
84,20:5
84,21:5
84,22:5
84,23:5
84,24:5
84,25:1
84,26:1
84,27:1
84,28:2
84,29:2
84,30:1
84,31:2
84,32:6
84,33:6
84,34:6
84,35:6
84,36:3
84,37:3
84,38:3
84,39:3
84,43:7
84,45:7
84,46:7
84,47:7
84,48:5
84,49:7
84,53:5
84,54:7
84,58:5
84,59:5
84,60:5
84,61:5
84,64:5
84,66:5
84,67:5
84,68:9
84,69:9
84,70:9
84,71:9
84,72:9
84,73:9
84,74:9
84,75:4
84,76:4
84,77:4
84,78:4
84,79:4
84,80:9
84,81:4
84,82:4
84,83:1
84,84:1
84,85:4
85,16:2
85,18:2
85,19:2
85,20:2
85,21:2
85,22:2
85,23:2
85,24:2
85,32:3
85,33:3
85,34:3
85,35:3
85,43:4
85,45:4
85,46:4
85,47:4
85,48:2
85,49:4
85,53:2
85,54:4
85,58:2
85,59:2
85,60:2
85,61:2
85,64:2
85,66:2
85,67:2
85,68:6
85,69:6
85,70:6
85,71:6
85,72:6
85,73:6
85,74:6
85,75:1
85,76:1
85,77:1
85,78:1
85,79:1
85,80:6
85,81:1
85,82:1
85,85:1
86,1:3
86,2:3
86,3:3
86,4:3
86,5:3
86,6:3
86,7:3
86,9:3
86,11:3
86,16:5
86,18:5
86,19:5
86,20:5
86,21:5
86,22:5
86,23:5
86,24:5
86,25:1
86,26:1
86,27:1
86,28:2
86,29:2
86,30:1
86,31:2
86,32:6
86,33:6
86,34:6
86,35:6
86,36:3
86,37:3
86,38:3
86,39:3
86,43:7
86,45:7
86,46:7
86,47:7
86,48:5
86,49:7
86,53:5
86,54:7
86,58:5
86,59:5
86,60:5
86,61:5
86,64:5
86,66:5
86,67:5
86,68:9
86,69:9
86,70:9
86,71:9
86,72:9
86,73:9
86,74:9
86,75:4
86,76:4
86,77:4
86,78:4
86,79:4
86,80:9
86,81:4
86,82:4
86,83:1
86,84:1
86,85:4
86,86:1
87,1:3
87,2:3
87,3:3
87,4:3
87,5:3
87,6:3
87,7:3
87,9:3
87,11:3
87,16:5
87,18:5
87,19:5
87,20:5
87,21:5
87,22:5
87,23:5
87,24:5
87,25:1
87,26:1
87,27:1
87,28:2
87,29:2
87,30:1
87,31:2
87,32:6
87,33:6
87,34:6
87,35:6
87,36:3
87,37:3
87,38:3
87,39:3
87,43:7
87,45:7
87,46:7
87,47:7
87,48:5
87,49:7
87,53:5
87,54:7
87,58:5
87,59:5
87,60:5
87,61:5
87,64:5
87,66:5
87,67:5
87,68:9
87,69:9
87,70:9
87,71:9
87,72:9
87,73:9
87,74:9
87,75:4
87,76:4
87,77:4
87,78:4
87,79:4
87,80:9
87,81:4
87,82:4
87,83:1
87,84:1
87,85:4
87,86:1
87,87:1
88,1:3
88,2:3
88,3:3
88,4:3
88,5:3
88,6:3
88,7:3
88,9:3
88,11:3
88,16:5
88,18:5
88,19:5
88,20:5
88,21:5
88,22:5
88,23:5
88,24:5
88,25:1
88,26:1
88,27:1
88,28:2
88,29:2
88,30:1
88,31:2
88,32:6
88,33:6
88,34:6
88,35:6
88,36:3
88,37:3
88,38:3
88,39:3
88,43:7
88,45:7
88,46:7
88,47:7
88,48:5
88,49:7
88,53:5
88,54:7
88,58:5
88,59:5
88,60:5
88,61:5
88,64:5
88,66:5
88,67:5
88,68:9
88,69:9
88,70:9
88,71:9
88,72:9
88,73:9
88,74:9
88,75:4
88,76:4
88,77:4
88,78:4
88,79:4
88,80:9
88,81:4
88,82:4
88,83:1
88,84:1
88,85:4
88,86:1
88,87:1
88,88:1
88,89:1
89,1:3
89,2:3
89,3:3
89,4:3
89,5:3
89,6:3
89,7:3
89,9:3
89,11:3
89,16:5
89,18:5
89,19:5
89,20:5
89,21:5
89,22:5
89,23:5
89,24:5
89,25:1
89,26:1
89,27:1
89,28:2
89,29:2
89,30:1
89,31:2
89,32:6
89,33:6
89,34:6
89,35:6
89,36:3
89,37:3
89,38:3
89,39:3
89,43:7
89,45:7
89,46:7
89,47:7
89,48:5
89,49:7
89,53:5
89,54:7
89,58:5
89,59:5
89,60:5
89,61:5
89,64:5
89,66:5
89,67:5
89,68:9
89,69:9
89,70:9
89,71:9
89,72:9
89,73:9
89,74:9
89,75:4
89,76:4
89,77:4
89,78:4
89,79:4
89,80:9
89,81:4
89,82:4
89,83:1
89,84:1
89,85:4
89,86:1
89,87:1
89,88:1
89,89:1

<end>

<optimal SALBP-1 value>
13


<rand seed>
467321153

<Lower Bounds>
Lm1=12
Lms1=12
Lm2=1
Lm3=2
Lm4=12
Best=12

<Optimal Stations (Iterations: 10)>
15
